p cnf 309 2448
115 142 159 172 195 0
147 156 158 235 0
141 161 171 194 0
75 124 145 154 166 0
72 131 135 246 291 0
69 105 109 112 168 0
67 151 162 164 165 249 0
64 176 177 252 0
62 126 181 265 0
119 137 182 296 304 0
139 183 187 0
54 190 191 0
174 179 197 276 0
52 78 102 199 0
100 153 202 279 0
95 96 132 0
93 94 110 160 0
106 149 0
85 86 88 89 90 0
84 136 0
82 83 185 0
79 101 193 0
74 121 0
71 118 133 140 0
68 111 114 130 0
65 103 108 0
60 63 175 0
122 127 0
56 58 59 128 0
53 55 138 184 188 0
51 76 180 0
73 144 0
70 97 98 116 120 0
50 92 107 201 0
87 204 206 207 0
209 210 211 212 0
214 215 216 217 0
219 220 221 0
222 223 225 0
148 157 226 227 0
143 173 196 228 0
80 229 231 232 233 0
125 146 155 234 236 237 0
134 170 0
113 238 239 0
123 163 240 0
167 241 242 245 247 0
66 150 178 248 250 0
251 253 254 256 257 0
61 258 260 263 264 266 0
269 270 271 272 0
200 273 274 275 0
99 189 0
117 277 0
203 278 280 281 282 0
91 205 284 285 286 0
-268 -296 0
-259 -296 0
-259 -268 0
-136 -224 0
-136 -287 0
-136 -193 0
-130 -136 0
-224 -287 0
-193 -224 0
-130 -224 0
-193 -287 0
-130 -287 0
-130 -193 0
-108 -175 0
-108 -122 0
-108 -288 0
-108 -184 0
-122 -175 0
-175 -288 0
-175 -184 0
-122 -288 0
-122 -184 0
-184 -288 0
-98 -289 0
-289 -290 0
-92 -289 0
-209 -289 0
-98 -290 0
-92 -98 0
-98 -209 0
-92 -290 0
-209 -290 0
-92 -209 0
-167 -292 0
-167 -178 0
-178 -292 0
-108 -136 0
-136 -289 0
-108 -289 0
-224 -296 0
-175 -296 0
-98 -296 0
-167 -296 0
-175 -224 0
-98 -224 0
-167 -224 0
-98 -175 0
-167 -175 0
-98 -167 0
-268 -287 0
-122 -268 0
-268 -290 0
-268 -292 0
-122 -287 0
-287 -290 0
-287 -292 0
-122 -290 0
-122 -292 0
-290 -292 0
-193 -259 0
-259 -288 0
-92 -259 0
-178 -259 0
-193 -288 0
-92 -193 0
-178 -193 0
-92 -288 0
-178 -288 0
-92 -178 0
-130 -184 0
-130 -209 0
-184 -209 0
-172 -230 0
-171 -172 0
-124 -172 0
-168 -172 0
-172 -249 0
-171 -230 0
-124 -230 0
-168 -230 0
-230 -249 0
-124 -171 0
-168 -171 0
-171 -249 0
-124 -168 0
-124 -249 0
-168 -249 0
-244 -252 0
-244 -304 0
-244 -262 0
-190 -244 0
-244 -276 0
-252 -304 0
-252 -262 0
-190 -252 0
-252 -276 0
-262 -304 0
-190 -304 0
-276 -304 0
-190 -262 0
-262 -276 0
-190 -276 0
-199 -279 0
-94 -199 0
-90 -199 0
-199 -293 0
-199 -294 0
-94 -279 0
-90 -279 0
-279 -293 0
-279 -294 0
-90 -94 0
-94 -293 0
-94 -294 0
-90 -293 0
-90 -294 0
-293 -294 0
-214 -219 0
-214 -295 0
-214 -226 0
-214 -229 0
-214 -234 0
-219 -295 0
-219 -226 0
-219 -229 0
-219 -234 0
-226 -295 0
-229 -295 0
-234 -295 0
-226 -229 0
-226 -234 0
-229 -234 0
-134 -238 0
-134 -241 0
-134 -248 0
-134 -251 0
-134 -258 0
-238 -241 0
-238 -248 0
-238 -251 0
-238 -258 0
-241 -248 0
-241 -251 0
-241 -258 0
-248 -251 0
-248 -258 0
-251 -258 0
-269 -297 0
-273 -297 0
-117 -297 0
-278 -297 0
-284 -297 0
-269 -273 0
-117 -269 0
-269 -278 0
-269 -284 0
-117 -273 0
-273 -278 0
-273 -284 0
-117 -278 0
-117 -284 0
-278 -284 0
-172 -244 0
-172 -199 0
-172 -214 0
-134 -172 0
-172 -297 0
-199 -244 0
-214 -244 0
-134 -244 0
-244 -297 0
-199 -214 0
-134 -199 0
-199 -297 0
-134 -214 0
-214 -297 0
-134 -297 0
-230 -252 0
-230 -279 0
-219 -230 0
-230 -238 0
-230 -269 0
-252 -279 0
-219 -252 0
-238 -252 0
-252 -269 0
-219 -279 0
-238 -279 0
-269 -279 0
-219 -238 0
-219 -269 0
-238 -269 0
-171 -304 0
-94 -171 0
-171 -295 0
-171 -241 0
-171 -273 0
-94 -304 0
-295 -304 0
-241 -304 0
-273 -304 0
-94 -295 0
-94 -241 0
-94 -273 0
-241 -295 0
-273 -295 0
-241 -273 0
-124 -262 0
-90 -124 0
-124 -226 0
-124 -248 0
-117 -124 0
-90 -262 0
-226 -262 0
-248 -262 0
-117 -262 0
-90 -226 0
-90 -248 0
-90 -117 0
-226 -248 0
-117 -226 0
-117 -248 0
-168 -190 0
-168 -293 0
-168 -229 0
-168 -251 0
-168 -278 0
-190 -293 0
-190 -229 0
-190 -251 0
-190 -278 0
-229 -293 0
-251 -293 0
-278 -293 0
-229 -251 0
-229 -278 0
-251 -278 0
-249 -276 0
-249 -294 0
-234 -249 0
-249 -258 0
-249 -284 0
-276 -294 0
-234 -276 0
-258 -276 0
-276 -284 0
-234 -294 0
-258 -294 0
-284 -294 0
-234 -258 0
-234 -284 0
-258 -284 0
-142 -147 0
-141 -142 0
-81 -142 0
-75 -142 0
-72 -142 0
-69 -142 0
-67 -142 0
-141 -147 0
-81 -147 0
-75 -147 0
-72 -147 0
-69 -147 0
-67 -147 0
-81 -141 0
-75 -141 0
-72 -141 0
-69 -141 0
-67 -141 0
-75 -81 0
-72 -81 0
-69 -81 0
-67 -81 0
-72 -75 0
-69 -75 0
-67 -75 0
-69 -72 0
-67 -72 0
-67 -69 0
-62 -299 0
-182 -299 0
-255 -299 0
-57 -299 0
-183 -299 0
-54 -299 0
-174 -299 0
-62 -182 0
-62 -255 0
-57 -62 0
-62 -183 0
-54 -62 0
-62 -174 0
-182 -255 0
-57 -182 0
-182 -183 0
-54 -182 0
-174 -182 0
-57 -255 0
-183 -255 0
-54 -255 0
-174 -255 0
-57 -183 0
-54 -57 0
-57 -174 0
-54 -183 0
-174 -183 0
-54 -174 0
-52 -96 0
-52 -160 0
-52 -106 0
-52 -89 0
-52 -208 0
-52 -213 0
-52 -218 0
-96 -160 0
-96 -106 0
-89 -96 0
-96 -208 0
-96 -213 0
-96 -218 0
-106 -160 0
-89 -160 0
-160 -208 0
-160 -213 0
-160 -218 0
-89 -106 0
-106 -208 0
-106 -213 0
-106 -218 0
-89 -208 0
-89 -213 0
-89 -218 0
-208 -213 0
-208 -218 0
-213 -218 0
-63 -127 0
-63 -300 0
-59 -63 0
-63 -301 0
-55 -63 0
-127 -300 0
-59 -127 0
-127 -301 0
-55 -127 0
-59 -300 0
-300 -301 0
-55 -300 0
-59 -301 0
-55 -59 0
-55 -301 0
-120 -302 0
-50 -120 0
-120 -283 0
-120 -204 0
-120 -210 0
-50 -302 0
-283 -302 0
-204 -302 0
-210 -302 0
-50 -283 0
-50 -204 0
-50 -210 0
-204 -283 0
-210 -283 0
-204 -210 0
-215 -303 0
-129 -215 0
-215 -222 0
-215 -227 0
-173 -215 0
-215 -231 0
-125 -215 0
-129 -303 0
-222 -303 0
-227 -303 0
-173 -303 0
-231 -303 0
-125 -303 0
-129 -222 0
-129 -227 0
-129 -173 0
-129 -231 0
-125 -129 0
-222 -227 0
-173 -222 0
-222 -231 0
-125 -222 0
-173 -227 0
-227 -231 0
-125 -227 0
-173 -231 0
-125 -173 0
-125 -231 0
-123 -170 0
-170 -242 0
-169 -170 0
-170 -250 0
-170 -243 0
-170 -253 0
-170 -260 0
-123 -242 0
-123 -169 0
-123 -250 0
-123 -243 0
-123 -253 0
-123 -260 0
-169 -242 0
-242 -250 0
-242 -243 0
-242 -253 0
-242 -260 0
-169 -250 0
-169 -243 0
-169 -253 0
-169 -260 0
-243 -250 0
-250 -253 0
-250 -260 0
-243 -253 0
-243 -260 0
-253 -260 0
-261 -305 0
-200 -305 0
-189 -305 0
-277 -305 0
-198 -305 0
-280 -305 0
-91 -305 0
-200 -261 0
-189 -261 0
-261 -277 0
-198 -261 0
-261 -280 0
-91 -261 0
-189 -200 0
-200 -277 0
-198 -200 0
-200 -280 0
-91 -200 0
-189 -277 0
-189 -198 0
-189 -280 0
-91 -189 0
-198 -277 0
-277 -280 0
-91 -277 0
-198 -280 0
-91 -198 0
-91 -280 0
-142 -299 0
-52 -142 0
-142 -215 0
-142 -170 0
-142 -305 0
-52 -299 0
-215 -299 0
-170 -299 0
-299 -305 0
-52 -215 0
-52 -170 0
-52 -305 0
-170 -215 0
-215 -305 0
-170 -305 0
-62 -147 0
-96 -147 0
-147 -303 0
-123 -147 0
-147 -261 0
-62 -96 0
-62 -303 0
-62 -123 0
-62 -261 0
-96 -303 0
-96 -123 0
-96 -261 0
-123 -303 0
-261 -303 0
-123 -261 0
-141 -182 0
-141 -160 0
-63 -141 0
-120 -141 0
-129 -141 0
-141 -242 0
-141 -200 0
-160 -182 0
-63 -182 0
-120 -182 0
-129 -182 0
-182 -242 0
-182 -200 0
-63 -160 0
-120 -160 0
-129 -160 0
-160 -242 0
-160 -200 0
-63 -120 0
-63 -129 0
-63 -242 0
-63 -200 0
-120 -129 0
-120 -242 0
-120 -200 0
-129 -242 0
-129 -200 0
-200 -242 0
-81 -255 0
-81 -106 0
-81 -127 0
-81 -302 0
-81 -222 0
-81 -169 0
-81 -189 0
-106 -255 0
-127 -255 0
-255 -302 0
-222 -255 0
-169 -255 0
-189 -255 0
-106 -127 0
-106 -302 0
-106 -222 0
-106 -169 0
-106 -189 0
-127 -302 0
-127 -222 0
-127 -169 0
-127 -189 0
-222 -302 0
-169 -302 0
-189 -302 0
-169 -222 0
-189 -222 0
-169 -189 0
-57 -75 0
-75 -89 0
-75 -300 0
-50 -75 0
-75 -227 0
-75 -250 0
-75 -277 0
-57 -89 0
-57 -300 0
-50 -57 0
-57 -227 0
-57 -250 0
-57 -277 0
-89 -300 0
-50 -89 0
-89 -227 0
-89 -250 0
-89 -277 0
-50 -300 0
-227 -300 0
-250 -300 0
-277 -300 0
-50 -227 0
-50 -250 0
-50 -277 0
-227 -250 0
-227 -277 0
-250 -277 0
-72 -183 0
-72 -208 0
-59 -72 0
-72 -283 0
-72 -173 0
-72 -243 0
-72 -198 0
-183 -208 0
-59 -183 0
-183 -283 0
-173 -183 0
-183 -243 0
-183 -198 0
-59 -208 0
-208 -283 0
-173 -208 0
-208 -243 0
-198 -208 0
-59 -283 0
-59 -173 0
-59 -243 0
-59 -198 0
-173 -283 0
-243 -283 0
-198 -283 0
-173 -243 0
-173 -198 0
-198 -243 0
-54 -69 0
-69 -213 0
-69 -301 0
-69 -204 0
-69 -231 0
-69 -253 0
-69 -280 0
-54 -213 0
-54 -301 0
-54 -204 0
-54 -231 0
-54 -253 0
-54 -280 0
-213 -301 0
-204 -213 0
-213 -231 0
-213 -253 0
-213 -280 0
-204 -301 0
-231 -301 0
-253 -301 0
-280 -301 0
-204 -231 0
-204 -253 0
-204 -280 0
-231 -253 0
-231 -280 0
-253 -280 0
-67 -174 0
-67 -218 0
-55 -67 0
-67 -210 0
-67 -125 0
-67 -260 0
-67 -91 0
-174 -218 0
-55 -174 0
-174 -210 0
-125 -174 0
-174 -260 0
-91 -174 0
-55 -218 0
-210 -218 0
-125 -218 0
-218 -260 0
-91 -218 0
-55 -210 0
-55 -125 0
-55 -260 0
-55 -91 0
-125 -210 0
-210 -260 0
-91 -210 0
-125 -260 0
-91 -125 0
-91 -260 0
-115 -186 0
-115 -135 0
-112 -115 0
-115 -162 0
-135 -186 0
-112 -186 0
-162 -186 0
-112 -135 0
-135 -162 0
-112 -162 0
-78 -202 0
-78 -306 0
-78 -307 0
-78 -308 0
-202 -306 0
-202 -307 0
-202 -308 0
-306 -307 0
-306 -308 0
-307 -308 0
-103 -152 0
-58 -103 0
-103 -267 0
-103 -188 0
-58 -152 0
-152 -267 0
-152 -188 0
-58 -267 0
-58 -188 0
-188 -267 0
-180 -192 0
-192 -309 0
-87 -192 0
-192 -211 0
-180 -309 0
-87 -180 0
-180 -211 0
-87 -309 0
-211 -309 0
-87 -211 0
-143 -148 0
-80 -148 0
-146 -148 0
-80 -143 0
-143 -146 0
-80 -146 0
-66 -298 0
-66 -254 0
-61 -66 0
-254 -298 0
-61 -298 0
-61 -254 0
-78 -115 0
-103 -115 0
-115 -192 0
-78 -103 0
-78 -192 0
-103 -192 0
-186 -202 0
-152 -186 0
-180 -186 0
-152 -202 0
-180 -202 0
-152 -180 0
-66 -148 0
-135 -306 0
-58 -135 0
-135 -309 0
-135 -143 0
-135 -298 0
-58 -306 0
-306 -309 0
-143 -306 0
-298 -306 0
-58 -309 0
-58 -143 0
-58 -298 0
-143 -309 0
-298 -309 0
-143 -298 0
-112 -307 0
-112 -267 0
-87 -112 0
-80 -112 0
-112 -254 0
-267 -307 0
-87 -307 0
-80 -307 0
-254 -307 0
-87 -267 0
-80 -267 0
-254 -267 0
-80 -87 0
-87 -254 0
-80 -254 0
-162 -308 0
-162 -188 0
-162 -211 0
-146 -162 0
-61 -162 0
-188 -308 0
-211 -308 0
-146 -308 0
-61 -308 0
-188 -211 0
-146 -188 0
-61 -188 0
-146 -211 0
-61 -211 0
-61 -146 0
-131 -145 0
-109 -145 0
-145 -164 0
-109 -131 0
-131 -164 0
-109 -164 0
-49 -88 0
-48 -88 0
-47 -88 0
-48 -49 0
-47 -49 0
-47 -48 0
-46 -83 0
-46 -121 0
-46 -118 0
-46 -114 0
-83 -121 0
-83 -118 0
-83 -114 0
-118 -121 0
-114 -121 0
-114 -118 0
-44 -45 0
-45 -128 0
-43 -45 0
-45 -138 0
-44 -128 0
-43 -44 0
-44 -138 0
-43 -128 0
-128 -138 0
-43 -138 0
-113 -163 0
-42 -113 0
-113 -256 0
-113 -263 0
-42 -163 0
-163 -256 0
-163 -263 0
-42 -256 0
-42 -263 0
-256 -263 0
-41 -270 0
-77 -270 0
-203 -270 0
-270 -285 0
-41 -77 0
-41 -203 0
-41 -285 0
-77 -203 0
-77 -285 0
-203 -285 0
-45 -46 0
-46 -113 0
-46 -270 0
-45 -113 0
-45 -270 0
-113 -270 0
-44 -83 0
-83 -163 0
-41 -83 0
-44 -163 0
-41 -44 0
-41 -163 0
-88 -145 0
-49 -131 0
-121 -131 0
-128 -131 0
-42 -131 0
-77 -131 0
-49 -121 0
-49 -128 0
-42 -49 0
-49 -77 0
-121 -128 0
-42 -121 0
-77 -121 0
-42 -128 0
-77 -128 0
-42 -77 0
-48 -109 0
-109 -118 0
-43 -109 0
-109 -256 0
-109 -203 0
-48 -118 0
-43 -48 0
-48 -256 0
-48 -203 0
-43 -118 0
-118 -256 0
-118 -203 0
-43 -256 0
-43 -203 0
-203 -256 0
-47 -164 0
-114 -164 0
-138 -164 0
-164 -263 0
-164 -285 0
-47 -114 0
-47 -138 0
-47 -263 0
-47 -285 0
-114 -138 0
-114 -263 0
-114 -285 0
-138 -263 0
-138 -285 0
-263 -285 0
-159 -235 0
-39 -40 0
-40 -133 0
-39 -133 0
-38 -116 0
-116 -206 0
-38 -206 0
-37 -216 0
-36 -216 0
-216 -223 0
-36 -37 0
-37 -223 0
-36 -223 0
-34 -35 0
-35 -274 0
-35 -99 0
-34 -274 0
-34 -99 0
-99 -274 0
-159 -216 0
-35 -159 0
-35 -216 0
-37 -235 0
-34 -235 0
-34 -37 0
-40 -116 0
-36 -40 0
-40 -274 0
-36 -116 0
-116 -274 0
-36 -274 0
-38 -39 0
-39 -223 0
-39 -99 0
-38 -223 0
-38 -99 0
-99 -223 0
-133 -206 0
-64 -126 0
-111 -140 0
-33 -220 0
-32 -220 0
-220 -232 0
-220 -236 0
-32 -33 0
-33 -232 0
-33 -236 0
-32 -232 0
-32 -236 0
-232 -236 0
-239 -240 0
-239 -245 0
-239 -257 0
-239 -264 0
-240 -245 0
-240 -257 0
-240 -264 0
-245 -257 0
-245 -264 0
-257 -264 0
-31 -271 0
-271 -275 0
-271 -281 0
-271 -286 0
-31 -275 0
-31 -281 0
-31 -286 0
-275 -281 0
-275 -286 0
-281 -286 0
-64 -220 0
-64 -239 0
-64 -271 0
-220 -239 0
-220 -271 0
-239 -271 0
-33 -126 0
-126 -240 0
-31 -126 0
-33 -240 0
-31 -33 0
-31 -240 0
-32 -245 0
-32 -275 0
-245 -275 0
-140 -232 0
-140 -257 0
-140 -281 0
-232 -257 0
-232 -281 0
-257 -281 0
-111 -236 0
-111 -264 0
-111 -286 0
-236 -264 0
-236 -286 0
-264 -286 0
-30 -195 0
-156 -195 0
-194 -195 0
-154 -195 0
-195 -246 0
-105 -195 0
-151 -195 0
-30 -156 0
-30 -194 0
-30 -154 0
-30 -246 0
-30 -105 0
-30 -151 0
-156 -194 0
-154 -156 0
-156 -246 0
-105 -156 0
-151 -156 0
-154 -194 0
-194 -246 0
-105 -194 0
-151 -194 0
-154 -246 0
-105 -154 0
-151 -154 0
-105 -246 0
-151 -246 0
-105 -151 0
-29 -176 0
-29 -265 0
-29 -119 0
-27 -29 0
-29 -187 0
-29 -191 0
-29 -179 0
-176 -265 0
-119 -176 0
-27 -176 0
-176 -187 0
-176 -191 0
-176 -179 0
-119 -265 0
-27 -265 0
-187 -265 0
-191 -265 0
-179 -265 0
-27 -119 0
-119 -187 0
-119 -191 0
-119 -179 0
-27 -187 0
-27 -191 0
-27 -179 0
-187 -191 0
-179 -187 0
-179 -191 0
-100 -102 0
-95 -102 0
-93 -102 0
-86 -102 0
-26 -102 0
-25 -102 0
-24 -102 0
-95 -100 0
-93 -100 0
-86 -100 0
-26 -100 0
-25 -100 0
-24 -100 0
-93 -95 0
-86 -95 0
-26 -95 0
-25 -95 0
-24 -95 0
-86 -93 0
-26 -93 0
-25 -93 0
-24 -93 0
-26 -86 0
-25 -86 0
-24 -86 0
-25 -26 0
-24 -26 0
-24 -25 0
-23 -84 0
-82 -84 0
-22 -84 0
-79 -84 0
-74 -84 0
-71 -84 0
-68 -84 0
-23 -82 0
-22 -23 0
-23 -79 0
-23 -74 0
-23 -71 0
-23 -68 0
-22 -82 0
-79 -82 0
-74 -82 0
-71 -82 0
-68 -82 0
-22 -79 0
-22 -74 0
-22 -71 0
-22 -68 0
-74 -79 0
-71 -79 0
-68 -79 0
-71 -74 0
-68 -74 0
-68 -71 0
-21 -65 0
-20 -65 0
-60 -65 0
-19 -65 0
-56 -65 0
-18 -65 0
-53 -65 0
-20 -21 0
-21 -60 0
-19 -21 0
-21 -56 0
-18 -21 0
-21 -53 0
-20 -60 0
-19 -20 0
-20 -56 0
-18 -20 0
-20 -53 0
-19 -60 0
-56 -60 0
-18 -60 0
-53 -60 0
-19 -56 0
-18 -19 0
-19 -53 0
-18 -56 0
-53 -56 0
-18 -53 0
-17 -51 0
-17 -144 0
-17 -97 0
-17 -107 0
-16 -17 0
-17 -207 0
-17 -212 0
-51 -144 0
-51 -97 0
-51 -107 0
-16 -51 0
-51 -207 0
-51 -212 0
-97 -144 0
-107 -144 0
-16 -144 0
-144 -207 0
-144 -212 0
-97 -107 0
-16 -97 0
-97 -207 0
-97 -212 0
-16 -107 0
-107 -207 0
-107 -212 0
-16 -207 0
-16 -212 0
-207 -212 0
-217 -221 0
-15 -217 0
-217 -228 0
-217 -233 0
-217 -237 0
-15 -221 0
-221 -228 0
-221 -233 0
-221 -237 0
-15 -228 0
-15 -233 0
-15 -237 0
-228 -233 0
-228 -237 0
-233 -237 0
-14 -272 0
-13 -14 0
-12 -14 0
-14 -282 0
-14 -205 0
-13 -272 0
-12 -272 0
-272 -282 0
-205 -272 0
-12 -13 0
-13 -282 0
-13 -205 0
-12 -282 0
-12 -205 0
-205 -282 0
-29 -195 0
-102 -195 0
-84 -195 0
-65 -195 0
-17 -195 0
-195 -217 0
-14 -195 0
-29 -102 0
-29 -84 0
-29 -65 0
-17 -29 0
-29 -217 0
-14 -29 0
-84 -102 0
-65 -102 0
-17 -102 0
-102 -217 0
-14 -102 0
-65 -84 0
-17 -84 0
-84 -217 0
-14 -84 0
-17 -65 0
-65 -217 0
-14 -65 0
-17 -217 0
-14 -17 0
-14 -217 0
-30 -176 0
-30 -100 0
-23 -30 0
-21 -30 0
-30 -51 0
-30 -221 0
-30 -272 0
-100 -176 0
-23 -176 0
-21 -176 0
-51 -176 0
-176 -221 0
-176 -272 0
-23 -100 0
-21 -100 0
-51 -100 0
-100 -221 0
-100 -272 0
-21 -23 0
-23 -51 0
-23 -221 0
-23 -272 0
-21 -51 0
-21 -221 0
-21 -272 0
-51 -221 0
-51 -272 0
-221 -272 0
-156 -265 0
-95 -156 0
-82 -156 0
-20 -156 0
-144 -156 0
-15 -156 0
-13 -156 0
-95 -265 0
-82 -265 0
-20 -265 0
-144 -265 0
-15 -265 0
-13 -265 0
-82 -95 0
-20 -95 0
-95 -144 0
-15 -95 0
-13 -95 0
-20 -82 0
-82 -144 0
-15 -82 0
-13 -82 0
-20 -144 0
-15 -20 0
-13 -20 0
-15 -144 0
-13 -144 0
-13 -15 0
-119 -194 0
-93 -194 0
-22 -194 0
-60 -194 0
-97 -194 0
-93 -119 0
-22 -119 0
-60 -119 0
-97 -119 0
-22 -93 0
-60 -93 0
-93 -97 0
-22 -60 0
-22 -97 0
-60 -97 0
-27 -154 0
-86 -154 0
-79 -154 0
-19 -154 0
-107 -154 0
-27 -86 0
-27 -79 0
-19 -27 0
-27 -107 0
-79 -86 0
-19 -86 0
-86 -107 0
-19 -79 0
-79 -107 0
-19 -107 0
-187 -246 0
-26 -246 0
-74 -246 0
-56 -246 0
-16 -246 0
-228 -246 0
-12 -246 0
-26 -187 0
-74 -187 0
-56 -187 0
-16 -187 0
-187 -228 0
-12 -187 0
-26 -74 0
-26 -56 0
-16 -26 0
-26 -228 0
-12 -26 0
-56 -74 0
-16 -74 0
-74 -228 0
-12 -74 0
-16 -56 0
-56 -228 0
-12 -56 0
-16 -228 0
-12 -16 0
-12 -228 0
-105 -191 0
-25 -105 0
-71 -105 0
-18 -105 0
-105 -207 0
-105 -233 0
-105 -282 0
-25 -191 0
-71 -191 0
-18 -191 0
-191 -207 0
-191 -233 0
-191 -282 0
-25 -71 0
-18 -25 0
-25 -207 0
-25 -233 0
-25 -282 0
-18 -71 0
-71 -207 0
-71 -233 0
-71 -282 0
-18 -207 0
-18 -233 0
-18 -282 0
-207 -233 0
-207 -282 0
-233 -282 0
-151 -179 0
-24 -151 0
-68 -151 0
-53 -151 0
-151 -212 0
-151 -237 0
-151 -205 0
-24 -179 0
-68 -179 0
-53 -179 0
-179 -212 0
-179 -237 0
-179 -205 0
-24 -68 0
-24 -53 0
-24 -212 0
-24 -237 0
-24 -205 0
-53 -68 0
-68 -212 0
-68 -237 0
-68 -205 0
-53 -212 0
-53 -237 0
-53 -205 0
-212 -237 0
-205 -212 0
-205 -237 0
-11 -158 0
-11 -161 0
-10 -11 0
-11 -166 0
-11 -291 0
-11 -165 0
-158 -161 0
-10 -158 0
-158 -166 0
-158 -291 0
-158 -165 0
-10 -161 0
-161 -166 0
-161 -291 0
-161 -165 0
-10 -166 0
-10 -291 0
-10 -165 0
-166 -291 0
-165 -166 0
-165 -291 0
-177 -181 0
-137 -177 0
-9 -177 0
-8 -177 0
-139 -177 0
-177 -197 0
-137 -181 0
-9 -181 0
-8 -181 0
-139 -181 0
-181 -197 0
-9 -137 0
-8 -137 0
-137 -139 0
-137 -197 0
-8 -9 0
-9 -139 0
-9 -197 0
-8 -139 0
-8 -197 0
-139 -197 0
-132 -153 0
-110 -153 0
-149 -153 0
-85 -153 0
-7 -153 0
-6 -153 0
-110 -132 0
-132 -149 0
-85 -132 0
-7 -132 0
-6 -132 0
-110 -149 0
-85 -110 0
-7 -110 0
-6 -110 0
-85 -149 0
-7 -149 0
-6 -149 0
-7 -85 0
-6 -85 0
-6 -7 0
-5 -185 0
-4 -5 0
-3 -5 0
-5 -101 0
-4 -185 0
-3 -185 0
-101 -185 0
-3 -4 0
-4 -101 0
-3 -101 0
-73 -76 0
-70 -76 0
-2 -76 0
-76 -201 0
-70 -73 0
-2 -73 0
-73 -201 0
-2 -70 0
-70 -201 0
-2 -201 0
-1 -225 0
-1 -157 0
-1 -196 0
-1 -155 0
-157 -225 0
-196 -225 0
-155 -225 0
-157 -196 0
-155 -157 0
-155 -196 0
-104 -247 0
-150 -247 0
-28 -247 0
-247 -266 0
-104 -150 0
-28 -104 0
-104 -266 0
-28 -150 0
-150 -266 0
-28 -266 0
-11 -177 0
-11 -153 0
-5 -11 0
-11 -76 0
-153 -177 0
-5 -177 0
-76 -177 0
-5 -153 0
-76 -153 0
-5 -76 0
-158 -181 0
-132 -158 0
-158 -185 0
-73 -158 0
-132 -181 0
-181 -185 0
-73 -181 0
-132 -185 0
-73 -132 0
-73 -185 0
-137 -161 0
-110 -161 0
-4 -161 0
-70 -161 0
-1 -161 0
-161 -247 0
-110 -137 0
-4 -137 0
-70 -137 0
-1 -137 0
-137 -247 0
-4 -110 0
-70 -110 0
-1 -110 0
-110 -247 0
-4 -70 0
-1 -4 0
-4 -247 0
-1 -70 0
-70 -247 0
-1 -247 0
-9 -10 0
-10 -149 0
-3 -10 0
-2 -10 0
-10 -225 0
-10 -104 0
-9 -149 0
-3 -9 0
-2 -9 0
-9 -225 0
-9 -104 0
-3 -149 0
-2 -149 0
-149 -225 0
-104 -149 0
-2 -3 0
-3 -225 0
-3 -104 0
-2 -225 0
-2 -104 0
-104 -225 0
-8 -166 0
-85 -166 0
-101 -166 0
-166 -201 0
-157 -166 0
-150 -166 0
-8 -85 0
-8 -101 0
-8 -201 0
-8 -157 0
-8 -150 0
-85 -101 0
-85 -201 0
-85 -157 0
-85 -150 0
-101 -201 0
-101 -157 0
-101 -150 0
-157 -201 0
-150 -201 0
-150 -157 0
-139 -291 0
-7 -291 0
-196 -291 0
-28 -291 0
-7 -139 0
-139 -196 0
-28 -139 0
-7 -196 0
-7 -28 0
-28 -196 0
-165 -197 0
-6 -165 0
-155 -165 0
-165 -266 0
-6 -197 0
-155 -197 0
-197 -266 0
-6 -155 0
-6 -266 0
-155 -266 0
-172 -230 0
-172 -244 0
-172 -252 0
-172 -199 0
-172 -279 0
-230 -244 0
-230 -252 0
-199 -230 0
-230 -279 0
-244 -252 0
-199 -244 0
-244 -279 0
-199 -252 0
-252 -279 0
-199 -279 0
-142 -147 0
-142 -299 0
-62 -142 0
-52 -142 0
-96 -142 0
-147 -299 0
-62 -147 0
-52 -147 0
-96 -147 0
-62 -299 0
-52 -299 0
-96 -299 0
-52 -62 0
-62 -96 0
-52 -96 0
-115 -186 0
-78 -115 0
-115 -202 0
-78 -186 0
-186 -202 0
-78 -202 0
-159 -235 0
-64 -126 0
-30 -195 0
-156 -195 0
-29 -195 0
-176 -195 0
-195 -265 0
-102 -195 0
-100 -195 0
-95 -195 0
-30 -156 0
-29 -30 0
-30 -176 0
-30 -265 0
-30 -102 0
-30 -100 0
-30 -95 0
-29 -156 0
-156 -176 0
-156 -265 0
-102 -156 0
-100 -156 0
-95 -156 0
-29 -176 0
-29 -265 0
-29 -102 0
-29 -100 0
-29 -95 0
-176 -265 0
-102 -176 0
-100 -176 0
-95 -176 0
-102 -265 0
-100 -265 0
-95 -265 0
-100 -102 0
-95 -102 0
-95 -100 0
-11 -158 0
-11 -177 0
-11 -181 0
-11 -153 0
-11 -132 0
-158 -177 0
-158 -181 0
-153 -158 0
-132 -158 0
-177 -181 0
-153 -177 0
-132 -177 0
-153 -181 0
-132 -181 0
-132 -153 0
-268 -296 0
-259 -296 0
-259 -268 0
-124 -171 0
-171 -304 0
-171 -262 0
-94 -171 0
-90 -171 0
-124 -304 0
-124 -262 0
-94 -124 0
-90 -124 0
-262 -304 0
-94 -304 0
-90 -304 0
-94 -262 0
-90 -262 0
-90 -94 0
-81 -141 0
-75 -141 0
-141 -182 0
-141 -255 0
-57 -141 0
-141 -160 0
-106 -141 0
-89 -141 0
-75 -81 0
-81 -182 0
-81 -255 0
-57 -81 0
-81 -160 0
-81 -106 0
-81 -89 0
-75 -182 0
-75 -255 0
-57 -75 0
-75 -160 0
-75 -106 0
-75 -89 0
-182 -255 0
-57 -182 0
-160 -182 0
-106 -182 0
-89 -182 0
-57 -255 0
-160 -255 0
-106 -255 0
-89 -255 0
-57 -160 0
-57 -106 0
-57 -89 0
-106 -160 0
-89 -160 0
-89 -106 0
-88 -145 0
-154 -194 0
-119 -194 0
-27 -194 0
-93 -194 0
-86 -194 0
-119 -154 0
-27 -154 0
-93 -154 0
-86 -154 0
-27 -119 0
-93 -119 0
-86 -119 0
-27 -93 0
-27 -86 0
-86 -93 0
-10 -161 0
-161 -166 0
-137 -161 0
-9 -161 0
-8 -161 0
-110 -161 0
-149 -161 0
-85 -161 0
-10 -166 0
-10 -137 0
-9 -10 0
-8 -10 0
-10 -110 0
-10 -149 0
-10 -85 0
-137 -166 0
-9 -166 0
-8 -166 0
-110 -166 0
-149 -166 0
-85 -166 0
-9 -137 0
-8 -137 0
-110 -137 0
-137 -149 0
-85 -137 0
-8 -9 0
-9 -110 0
-9 -149 0
-9 -85 0
-8 -110 0
-8 -149 0
-8 -85 0
-110 -149 0
-85 -110 0
-85 -149 0
-168 -249 0
-168 -190 0
-168 -276 0
-168 -293 0
-168 -294 0
-190 -249 0
-249 -276 0
-249 -293 0
-249 -294 0
-190 -276 0
-190 -293 0
-190 -294 0
-276 -293 0
-276 -294 0
-293 -294 0
-69 -72 0
-67 -72 0
-72 -183 0
-54 -72 0
-72 -174 0
-72 -208 0
-72 -213 0
-72 -218 0
-67 -69 0
-69 -183 0
-54 -69 0
-69 -174 0
-69 -208 0
-69 -213 0
-69 -218 0
-67 -183 0
-54 -67 0
-67 -174 0
-67 -208 0
-67 -213 0
-67 -218 0
-54 -183 0
-174 -183 0
-183 -208 0
-183 -213 0
-183 -218 0
-54 -174 0
-54 -208 0
-54 -213 0
-54 -218 0
-174 -208 0
-174 -213 0
-174 -218 0
-208 -213 0
-208 -218 0
-213 -218 0
-112 -135 0
-135 -162 0
-135 -306 0
-135 -307 0
-135 -308 0
-112 -162 0
-112 -306 0
-112 -307 0
-112 -308 0
-162 -306 0
-162 -307 0
-162 -308 0
-306 -307 0
-306 -308 0
-307 -308 0
-109 -131 0
-131 -164 0
-49 -131 0
-48 -131 0
-47 -131 0
-109 -164 0
-49 -109 0
-48 -109 0
-47 -109 0
-49 -164 0
-48 -164 0
-47 -164 0
-48 -49 0
-47 -49 0
-47 -48 0
-105 -246 0
-151 -246 0
-187 -246 0
-191 -246 0
-179 -246 0
-26 -246 0
-25 -246 0
-24 -246 0
-105 -151 0
-105 -187 0
-105 -191 0
-105 -179 0
-26 -105 0
-25 -105 0
-24 -105 0
-151 -187 0
-151 -191 0
-151 -179 0
-26 -151 0
-25 -151 0
-24 -151 0
-187 -191 0
-179 -187 0
-26 -187 0
-25 -187 0
-24 -187 0
-179 -191 0
-26 -191 0
-25 -191 0
-24 -191 0
-26 -179 0
-25 -179 0
-24 -179 0
-25 -26 0
-24 -26 0
-24 -25 0
-165 -291 0
-139 -291 0
-197 -291 0
-7 -291 0
-6 -291 0
-139 -165 0
-165 -197 0
-7 -165 0
-6 -165 0
-139 -197 0
-7 -139 0
-6 -139 0
-7 -197 0
-6 -197 0
-6 -7 0
-108 -136 0
-136 -289 0
-108 -289 0
-103 -152 0
-103 -192 0
-103 -180 0
-152 -192 0
-152 -180 0
-180 -192 0
-46 -83 0
-45 -46 0
-44 -46 0
-45 -83 0
-44 -83 0
-44 -45 0
-23 -84 0
-82 -84 0
-65 -84 0
-21 -84 0
-20 -84 0
-17 -84 0
-51 -84 0
-84 -144 0
-23 -82 0
-23 -65 0
-21 -23 0
-20 -23 0
-17 -23 0
-23 -51 0
-23 -144 0
-65 -82 0
-21 -82 0
-20 -82 0
-17 -82 0
-51 -82 0
-82 -144 0
-21 -65 0
-20 -65 0
-17 -65 0
-51 -65 0
-65 -144 0
-20 -21 0
-17 -21 0
-21 -51 0
-21 -144 0
-17 -20 0
-20 -51 0
-20 -144 0
-17 -51 0
-17 -144 0
-51 -144 0
-5 -185 0
-5 -76 0
-5 -73 0
-76 -185 0
-73 -185 0
-73 -76 0
-224 -287 0
-193 -224 0
-175 -224 0
-122 -224 0
-224 -288 0
-98 -224 0
-224 -290 0
-92 -224 0
-193 -287 0
-175 -287 0
-122 -287 0
-287 -288 0
-98 -287 0
-287 -290 0
-92 -287 0
-175 -193 0
-122 -193 0
-193 -288 0
-98 -193 0
-193 -290 0
-92 -193 0
-122 -175 0
-175 -288 0
-98 -175 0
-175 -290 0
-92 -175 0
-122 -288 0
-98 -122 0
-122 -290 0
-92 -122 0
-98 -288 0
-288 -290 0
-92 -288 0
-98 -290 0
-92 -98 0
-92 -290 0
-63 -127 0
-63 -300 0
-63 -120 0
-63 -302 0
-50 -63 0
-127 -300 0
-120 -127 0
-127 -302 0
-50 -127 0
-120 -300 0
-300 -302 0
-50 -300 0
-120 -302 0
-50 -120 0
-50 -302 0
-39 -40 0
-40 -116 0
-38 -40 0
-39 -116 0
-38 -39 0
-38 -116 0
-22 -79 0
-22 -60 0
-19 -22 0
-22 -97 0
-22 -107 0
-60 -79 0
-19 -79 0
-79 -97 0
-79 -107 0
-19 -60 0
-60 -97 0
-60 -107 0
-19 -97 0
-19 -107 0
-97 -107 0
-3 -4 0
-4 -101 0
-4 -70 0
-2 -4 0
-4 -201 0
-3 -101 0
-3 -70 0
-2 -3 0
-3 -201 0
-70 -101 0
-2 -101 0
-101 -201 0
-2 -70 0
-70 -201 0
-2 -201 0
-130 -184 0
-130 -209 0
-184 -209 0
-59 -301 0
-55 -59 0
-59 -283 0
-59 -204 0
-59 -210 0
-55 -301 0
-283 -301 0
-204 -301 0
-210 -301 0
-55 -283 0
-55 -204 0
-55 -210 0
-204 -283 0
-210 -283 0
-204 -210 0
-58 -267 0
-58 -188 0
-58 -309 0
-58 -87 0
-58 -211 0
-188 -267 0
-267 -309 0
-87 -267 0
-211 -267 0
-188 -309 0
-87 -188 0
-188 -211 0
-87 -309 0
-211 -309 0
-87 -211 0
-118 -121 0
-114 -121 0
-121 -128 0
-43 -121 0
-121 -138 0
-114 -118 0
-118 -128 0
-43 -118 0
-118 -138 0
-114 -128 0
-43 -114 0
-114 -138 0
-43 -128 0
-128 -138 0
-43 -138 0
-133 -206 0
-111 -140 0
-71 -74 0
-68 -74 0
-56 -74 0
-18 -74 0
-53 -74 0
-16 -74 0
-74 -207 0
-74 -212 0
-68 -71 0
-56 -71 0
-18 -71 0
-53 -71 0
-16 -71 0
-71 -207 0
-71 -212 0
-56 -68 0
-18 -68 0
-53 -68 0
-16 -68 0
-68 -207 0
-68 -212 0
-18 -56 0
-53 -56 0
-16 -56 0
-56 -207 0
-56 -212 0
-18 -53 0
-16 -18 0
-18 -207 0
-18 -212 0
-16 -53 0
-53 -207 0
-53 -212 0
-16 -207 0
-16 -212 0
-207 -212 0
-214 -219 0
-134 -214 0
-214 -238 0
-214 -297 0
-214 -269 0
-134 -219 0
-219 -238 0
-219 -297 0
-219 -269 0
-134 -238 0
-134 -297 0
-134 -269 0
-238 -297 0
-238 -269 0
-269 -297 0
-215 -303 0
-170 -215 0
-123 -215 0
-215 -305 0
-215 -261 0
-170 -303 0
-123 -303 0
-303 -305 0
-261 -303 0
-123 -170 0
-170 -305 0
-170 -261 0
-123 -305 0
-123 -261 0
-261 -305 0
-113 -163 0
-113 -270 0
-41 -113 0
-163 -270 0
-41 -163 0
-41 -270 0
-37 -216 0
-35 -216 0
-34 -216 0
-35 -37 0
-34 -37 0
-34 -35 0
-33 -220 0
-220 -239 0
-220 -240 0
-220 -271 0
-31 -220 0
-33 -239 0
-33 -240 0
-33 -271 0
-31 -33 0
-239 -240 0
-239 -271 0
-31 -239 0
-240 -271 0
-31 -240 0
-31 -271 0
-217 -221 0
-15 -217 0
-14 -217 0
-217 -272 0
-13 -217 0
-15 -221 0
-14 -221 0
-221 -272 0
-13 -221 0
-14 -15 0
-15 -272 0
-13 -15 0
-14 -272 0
-13 -14 0
-13 -272 0
-167 -292 0
-167 -178 0
-178 -292 0
-226 -295 0
-241 -295 0
-248 -295 0
-273 -295 0
-117 -295 0
-226 -241 0
-226 -248 0
-226 -273 0
-117 -226 0
-241 -248 0
-241 -273 0
-117 -241 0
-248 -273 0
-117 -248 0
-117 -273 0
-129 -222 0
-129 -227 0
-129 -242 0
-129 -169 0
-129 -250 0
-129 -200 0
-129 -189 0
-129 -277 0
-222 -227 0
-222 -242 0
-169 -222 0
-222 -250 0
-200 -222 0
-189 -222 0
-222 -277 0
-227 -242 0
-169 -227 0
-227 -250 0
-200 -227 0
-189 -227 0
-227 -277 0
-169 -242 0
-242 -250 0
-200 -242 0
-189 -242 0
-242 -277 0
-169 -250 0
-169 -200 0
-169 -189 0
-169 -277 0
-200 -250 0
-189 -250 0
-250 -277 0
-189 -200 0
-200 -277 0
-189 -277 0
-66 -148 0
-36 -223 0
-36 -274 0
-36 -99 0
-223 -274 0
-99 -223 0
-99 -274 0
-32 -245 0
-32 -275 0
-245 -275 0
-1 -225 0
-1 -157 0
-1 -247 0
-1 -104 0
-1 -150 0
-157 -225 0
-225 -247 0
-104 -225 0
-150 -225 0
-157 -247 0
-104 -157 0
-150 -157 0
-104 -247 0
-150 -247 0
-104 -150 0
-229 -234 0
-229 -251 0
-229 -258 0
-229 -278 0
-229 -284 0
-234 -251 0
-234 -258 0
-234 -278 0
-234 -284 0
-251 -258 0
-251 -278 0
-251 -284 0
-258 -278 0
-258 -284 0
-278 -284 0
-173 -231 0
-125 -173 0
-173 -243 0
-173 -253 0
-173 -260 0
-173 -198 0
-173 -280 0
-91 -173 0
-125 -231 0
-231 -243 0
-231 -253 0
-231 -260 0
-198 -231 0
-231 -280 0
-91 -231 0
-125 -243 0
-125 -253 0
-125 -260 0
-125 -198 0
-125 -280 0
-91 -125 0
-243 -253 0
-243 -260 0
-198 -243 0
-243 -280 0
-91 -243 0
-253 -260 0
-198 -253 0
-253 -280 0
-91 -253 0
-198 -260 0
-260 -280 0
-91 -260 0
-198 -280 0
-91 -198 0
-91 -280 0
-80 -143 0
-143 -146 0
-143 -298 0
-143 -254 0
-61 -143 0
-80 -146 0
-80 -298 0
-80 -254 0
-61 -80 0
-146 -298 0
-146 -254 0
-61 -146 0
-254 -298 0
-61 -298 0
-61 -254 0
-42 -256 0
-42 -263 0
-42 -77 0
-42 -203 0
-42 -285 0
-256 -263 0
-77 -256 0
-203 -256 0
-256 -285 0
-77 -263 0
-203 -263 0
-263 -285 0
-77 -203 0
-77 -285 0
-203 -285 0
-232 -236 0
-232 -257 0
-232 -264 0
-232 -281 0
-232 -286 0
-236 -257 0
-236 -264 0
-236 -281 0
-236 -286 0
-257 -264 0
-257 -281 0
-257 -286 0
-264 -281 0
-264 -286 0
-281 -286 0
-228 -233 0
-228 -237 0
-12 -228 0
-228 -282 0
-205 -228 0
-233 -237 0
-12 -233 0
-233 -282 0
-205 -233 0
-12 -237 0
-237 -282 0
-205 -237 0
-12 -282 0
-12 -205 0
-205 -282 0
-155 -196 0
-28 -196 0
-196 -266 0
-28 -155 0
-155 -266 0
-28 -266 0
